NAME: random_points
TYPE: TSP
DIMENSION: 23
EDGE_WEIGHT_TYPE: EUC_2D
NODE_COORD_SECTION
1 190 773
2 700 254
3 962 900
4 480 678
5 835 761
6 120 502
7 179 556
8 171 207
9 587 771
10 140 563
11 518 283
12 968 383
13 372 848
14 379 881
15 196 172
16 47 126
17 232 615
18 50 223
19 874 14
20 281 190
21 427 840
22 141 396
23 794 387
EOF
